NAME: Tnm109
COMMENT: Recalculated optimal tour for Tnm109, using concorde got a tour of length 1527709.0
TYPE: TOUR
DIMENSION: 109
TOUR_SECTION:
1
86
4
7
10
89
92
95
98
101
13
16
19
22
25
28
31
34
37
40
43
46
49
52
55
58
61
64
67
70
93
90
73
76
87
79
82
2
5
8
11
14
17
20
23
26
29
32
35
38
41
96
99
102
105
108
109
107
104
106
103
100
97
94
44
47
50
53
56
59
62
65
68
71
74
77
85
80
83
3
6
9
88
91
12
15
18
21
24
27
30
33
36
39
42
45
48
51
54
57
60
63
66
69
72
75
78
81
84 
-1
EOF
